c "604365.clq"
p edge 120 464
e 1 5
e 1 6
e 1 9
e 1 15
e 1 18
e 1 19
e 1 22
e 1 27
e 1 36
e 1 43
e 1 57
e 1 72
e 1 73
e 1 76
e 1 88
e 1 91
e 1 96
e 1 115
e 2 5
e 3 5
e 3 6
e 3 7
e 3 8
e 3 9
e 3 10
e 3 12
e 3 13
e 3 14
e 3 15
e 3 16
e 3 19
e 3 20
e 3 22
e 3 23
e 3 25
e 3 26
e 3 27
e 3 28
e 3 29
e 3 35
e 3 39
e 3 42
e 3 61
e 3 63
e 3 69
e 3 71
e 3 73
e 3 90
e 3 99
e 3 103
e 3 107
e 3 117
e 4 5
e 4 6
e 4 7
e 4 10
e 4 11
e 4 16
e 4 17
e 4 21
e 4 25
e 4 33
e 4 34
e 4 38
e 4 57
e 4 60
e 4 72
e 4 79
e 4 86
e 4 89
e 4 98
e 4 101
e 4 113
e 5 6
e 5 7
e 5 8
e 5 11
e 5 12
e 5 14
e 5 16
e 5 18
e 5 23
e 5 24
e 5 26
e 5 27
e 5 29
e 5 31
e 5 44
e 5 46
e 5 48
e 5 52
e 5 56
e 5 65
e 5 73
e 5 80
e 5 82
e 5 87
e 5 96
e 5 99
e 5 100
e 5 106
e 5 108
e 5 111
e 6 7
e 6 8
e 6 9
e 6 10
e 6 11
e 6 22
e 6 32
e 6 34
e 6 37
e 6 40
e 6 62
e 6 63
e 6 64
e 6 66
e 6 67
e 6 70
e 6 75
e 6 85
e 6 112
e 6 119
e 7 8
e 7 11
e 7 13
e 7 14
e 7 18
e 7 22
e 7 24
e 7 35
e 7 39
e 7 46
e 7 56
e 7 60
e 7 63
e 7 69
e 7 92
e 7 94
e 7 95
e 7 108
e 8 9
e 8 12
e 8 15
e 8 19
e 8 29
e 8 31
e 8 32
e 8 34
e 8 41
e 8 46
e 8 52
e 8 62
e 8 64
e 8 75
e 8 82
e 8 89
e 8 100
e 9 10
e 9 13
e 9 14
e 9 17
e 9 33
e 9 40
e 9 45
e 9 51
e 9 55
e 9 61
e 10 13
e 10 25
e 10 26
e 10 33
e 10 35
e 10 36
e 10 39
e 10 48
e 10 55
e 10 78
e 10 89
e 10 95
e 10 102
e 10 109
e 10 111
e 11 12
e 11 16
e 11 19
e 11 20
e 11 21
e 11 23
e 11 28
e 11 30
e 11 32
e 11 33
e 11 37
e 11 38
e 11 42
e 11 45
e 11 47
e 11 48
e 11 50
e 11 53
e 11 55
e 11 56
e 11 57
e 11 58
e 11 62
e 11 66
e 11 68
e 11 71
e 11 72
e 11 73
e 11 85
e 11 87
e 11 102
e 11 108
e 12 15
e 12 17
e 12 24
e 12 29
e 12 30
e 12 44
e 12 50
e 12 58
e 12 72
e 12 81
e 12 93
e 12 96
e 12 97
e 12 101
e 12 120
e 13 43
e 13 54
e 13 61
e 13 79
e 13 83
e 13 90
e 14 21
e 15 23
e 15 70
e 15 81
e 15 82
e 15 102
e 16 17
e 16 37
e 16 100
e 16 110
e 16 116
e 17 18
e 17 20
e 17 28
e 17 45
e 17 50
e 17 52
e 17 60
e 17 66
e 17 92
e 17 94
e 17 104
e 17 106
e 17 109
e 18 20
e 18 31
e 18 45
e 18 51
e 18 53
e 18 76
e 18 103
e 18 112
e 18 115
e 19 27
e 19 30
e 19 53
e 19 86
e 19 92
e 20 21
e 20 25
e 20 38
e 20 44
e 20 49
e 20 53
e 20 70
e 20 112
e 20 114
e 21 31
e 21 42
e 21 47
e 21 71
e 21 75
e 21 98
e 21 111
e 22 24
e 22 26
e 22 38
e 22 59
e 22 67
e 22 74
e 22 87
e 22 95
e 22 101
e 22 109
e 22 115
e 23 37
e 24 35
e 24 84
e 24 94
e 25 28
e 25 34
e 25 48
e 25 49
e 25 54
e 25 96
e 26 32
e 26 55
e 27 30
e 27 64
e 27 97
e 28 50
e 28 80
e 28 110
e 29 51
e 29 64
e 29 76
e 29 77
e 29 82
e 29 97
e 30 41
e 30 104
e 32 36
e 32 57
e 32 71
e 32 74
e 32 81
e 32 86
e 32 99
e 33 49
e 33 116
e 34 39
e 34 43
e 34 52
e 34 59
e 34 91
e 35 36
e 35 40
e 35 41
e 35 42
e 35 43
e 35 46
e 35 69
e 35 83
e 35 87
e 35 100
e 37 105
e 37 112
e 38 40
e 38 41
e 38 70
e 38 92
e 38 105
e 38 119
e 39 68
e 39 78
e 39 86
e 39 88
e 39 104
e 40 44
e 40 47
e 40 56
e 40 58
e 40 65
e 40 68
e 40 93
e 40 109
e 40 110
e 41 49
e 41 60
e 41 79
e 42 78
e 43 54
e 43 59
e 43 61
e 44 66
e 44 90
e 44 114
e 45 47
e 45 58
e 45 67
e 45 85
e 45 89
e 45 91
e 47 54
e 47 59
e 48 67
e 48 76
e 48 78
e 48 80
e 48 88
e 48 117
e 49 62
e 49 65
e 49 69
e 49 77
e 49 95
e 50 51
e 50 63
e 50 90
e 51 65
e 51 101
e 51 105
e 52 98
e 52 108
e 54 74
e 54 75
e 54 83
e 54 115
e 56 84
e 57 105
e 59 77
e 60 111
e 63 74
e 63 98
e 63 99
e 64 102
e 65 77
e 66 80
e 66 83
e 66 103
e 66 106
e 67 68
e 67 113
e 67 116
e 68 106
e 69 85
e 70 81
e 70 84
e 70 118
e 71 117
e 72 93
e 72 103
e 72 114
e 73 120
e 74 118
e 76 79
e 76 84
e 76 91
e 76 107
e 76 114
e 76 119
e 81 94
e 83 119
e 85 88
e 88 93
e 88 110
e 91 104
e 92 118
e 94 97
e 95 117
e 96 107
e 102 116
e 103 120
e 104 107
e 105 113
e 105 118
e 109 113
e 111 120
